objective value:                                   -4
t_n_18                                              1 	(obj:-1)
t_n_442                                             1 	(obj:-1)
t_n_1589                                            1 	(obj:-1)
t_n_1851                                            1 	(obj:-1)
